Problem:    ex4
Rows:       4
Columns:    2
Non-zeros:  8
Status:     OPTIMAL
Objective:  cost = 6333.333333 (MINimum)

   No.   Row name   St   Activity     Lower bound   Upper bound    Marginal
------ ------------ -- ------------- ------------- ------------- -------------
     1 cost         B        6333.33                             
     2 totalprod    NS             1             1             =      -5333.33 
     3 alumini      B            0.3          0.23               
     4 coure        NL           0.7           0.7                     16666.7 

   No. Column name  St   Activity     Lower bound   Upper bound    Marginal
------ ------------ -- ------------- ------------- ------------- -------------
     1 x[A]         B       0.166667             0               
     2 x[B]         B       0.833333             0               

Karush-Kuhn-Tucker optimality conditions:

KKT.PE: max.abs.err = 0.00e+00 on row 0
        max.rel.err = 0.00e+00 on row 0
        High quality

KKT.PB: max.abs.err = 0.00e+00 on row 0
        max.rel.err = 0.00e+00 on row 0
        High quality

KKT.DE: max.abs.err = 0.00e+00 on column 0
        max.rel.err = 0.00e+00 on column 0
        High quality

KKT.DB: max.abs.err = 0.00e+00 on row 0
        max.rel.err = 0.00e+00 on row 0
        High quality

End of output
